100
32
14
3
20
15
8
5
1
7
16
1
9
5
25
12
17
18
20
15
17
9
6
8
23
25
1
28
1
4
10
24
27
19
21
3
19
16
12
9
18
2
1
1
20
20
23
9
14
5
17
8
23
4
23
6
29
20
2
9
13
1
22
11
8
10
3
8
1
18
16
12
19
2
12
31
27
8
8
13
7
21
4
24
4
12
4
20
15
23
1
10
8
21
9
18
14
3
19
10
8
15